c
c Generated WCNF file
c
p wcnf 22 88 14122
14122 7 0
14122 -8 1 0
14122 -8 2 0
14122 8 -1 -2 0
14122 -9 1 0
14122 -9 3 0
14122 9 -1 -3 0
14122 -10 1 0
14122 -10 4 0
14122 10 -1 -4 0
14122 -11 1 0
14122 -11 5 0
14122 11 -1 -5 0
14122 -12 1 0
14122 -12 6 0
14122 12 -1 -6 0
14122 -13 2 0
14122 -13 3 0
14122 13 -2 -3 0
14122 -14 2 0
14122 -14 4 0
14122 14 -2 -4 0
14122 -15 2 0
14122 -15 5 0
14122 15 -2 -5 0
14122 -16 2 0
14122 -16 6 0
14122 16 -2 -6 0
14122 -17 3 0
14122 -17 4 0
14122 17 -3 -4 0
14122 -18 3 0
14122 -18 5 0
14122 18 -3 -5 0
14122 -19 3 0
14122 -19 6 0
14122 19 -3 -6 0
14122 -20 4 0
14122 -20 5 0
14122 20 -4 -5 0
14122 -21 4 0
14122 -21 6 0
14122 21 -4 -6 0
14122 -22 5 0
14122 -22 6 0
14122 22 -5 -6 0
11007 1 0
14112 -1 0
5884 8 0
14112 -8 0
16450 9 0
14112 -9 0
10506 10 0
14112 -10 0
12098 11 0
14112 -11 0
13352 12 0
14112 -12 0
10271 2 0
14112 -2 0
10724 13 0
14112 -13 0
13652 14 0
14112 -14 0
12956 15 0
14112 -15 0
15552 16 0
14112 -16 0
13308 3 0
14112 -3 0
12684 17 0
14112 -17 0
12298 18 0
14112 -18 0
15112 19 0
14112 -19 0
20902 4 0
14112 -4 0
8454 20 0
14112 -20 0
12232 21 0
14112 -21 0
19909 5 0
14112 -5 0
13192 22 0
14112 -22 0
15512 6 0
14112 -6 0
